objective value:                                 4527
x_0                                               220 	(obj:4.4)
x_1                                               130 	(obj:3.8)
x_2                                               250 	(obj:4.1)
x_4                                               400 	(obj:5.1)
